<?xml version="1.0" encoding="UTF-8"?><osil xmlns="os.optimizationservices.org" xmlns:xsi="http://www.w3.org/2001/XMLSchema-instance" xsi:schemaLocation="os.optimizationservices.org http://www.optimizationservices.org/schemas/2.0/OSiL.xsd"><instanceHeader><name>filter</name></instanceHeader><instanceData><variables numberOfVariables="2"><var name="x1" lb="900"/><var name="x2" lb="10"/></variables><objectives><obj maxOrMin="min" constant="-4.73e4" name="defObj_objvar" numberOfObjCoef="0"/></objectives><constraints numberOfConstraints="1"><con name="e2" lb="0" ub="0"/></constraints><linearConstraintCoefficients numberOfValues="1"><start><el>0</el><el>1</el></start><colIdx><el>0</el></colIdx><value><el>1</el></value></linearConstraintCoefficients><nonlinearExpressions numberOfNonlinearExpressions="2"><nl idx="-1"><sum><product><power><divide><number value="1e7"/><product><sum><divide><variable idx="0"/><variable idx="1"/></divide><number value="10"/></sum><sum><number value="-2.88e5"/><variable idx="0" coef="1.44e3"/></sum></product></divide><number value=".86"/></power><number value="116"/></product><divide><variable idx="0" coef="4.73e4"/><sum><number value="-200"/><variable idx="0"/></sum></divide></sum></nl><nl idx="0"><product><log10><divide><number value="41.1522633744856"/><variable idx="1"/></divide></log10><number value="-2.1e3"/></product></nl></nonlinearExpressions></instanceData></osil>